RT is False
Default write of storage_offers_DA.csv just to have a file (but constraint should be inactive)
Reading model...
...model read.
creating competitive generators file...
...competitive generators recorded.
Loading data...
.. day-ahead data with real-time VRE data read.
Compiling instance...
...instance created.
Creating Offer Mitigation (model will solve as dispatch if TRUE)...
NOTE: storage offers will not be mitigated
...storage offer mitigation file created
Converting model to MPEC...
...converted
NOTE: initial MIP solve with only storage competitive to get feasible solution
Solving...

Welcome to IBM(R) ILOG(R) CPLEX(R) Interactive Optimizer 12.8.0.0
  with Simplex, Mixed Integer & Barrier Optimizers
5725-A06 5725-A29 5724-Y48 5724-Y49 5724-Y54 5724-Y55 5655-Y21
Copyright IBM Corp. 1988, 2017.  All Rights Reserved.

Type 'help' for a list of available commands.
Type 'help' followed by a command name for more
information on commands.

CPLEX> Logfile 'cplex.log' closed.
Logfile 'C:\Users\llavi\Desktop\test919\logs\tmpqlvk5d98.cplex.log' open.
CPLEX> New value for parallel optimization mode: -1
CPLEX> New value for mixed integer optimality gap tolerance: 0.01
CPLEX> New value for integrality tolerance: 1e-09
CPLEX> New value for feasibility tolerance: 0.01
CPLEX> New value for deterministic time limit in ticks: 75000
CPLEX> Problem 'C:\Users\llavi\Desktop\test919\logs\tmp0cqmc53x.pyomo.lp' read.
Read time = 0.31 sec. (13.50 ticks)
CPLEX> Problem name         : C:\Users\llavi\Desktop\test919\logs\tmp0cqmc53x.pyomo.lp
Objective sense      : Maximize
Variables            :   54021  [Nneg: 1,  Box: 22008,  Free: 4464,
                                 Binary: 27548]
Objective nonzeros   :    8980
Linear constraints   :  123829  [Less: 41554,  Greater: 59512,  Equal: 22763]
  Nonzeros           :  300593
  RHS nonzeros       :   67901

Variables            : Min LB: -5000.000        Max UB: 1000000.       
Objective nonzeros   : Min   : 0.4000000        Max   : 760.4917       
Linear constraints   :
  Nonzeros           : Min   : 0.001000000      Max   : 1000000.       
  RHS nonzeros       : Min   : 0.4000000        Max   : 1000000.       
CPLEX> CPXPARAM_Simplex_Tolerances_Feasibility          0.01
CPXPARAM_Parallel                                -1
CPXPARAM_DetTimeLimit                            75000
CPXPARAM_MIP_Tolerances_MIPGap                   0.01
CPXPARAM_MIP_Tolerances_Integrality              1.0000000000000001e-09
Tried aggregator 3 times.
MIP Presolve eliminated 89377 rows and 19269 columns.
MIP Presolve added 3393 rows and 0 columns.
MIP Presolve modified 23850 coefficients.
Aggregator did 13017 substitutions.
Reduced MIP has 24828 rows, 21179 columns, and 70875 nonzeros.
Reduced MIP has 8373 binaries, 0 generals, 0 SOSs, and 0 indicators.
Presolve time = 0.27 sec. (169.76 ticks)
Probing fixed 413 vars, tightened 2853 bounds.
Probing time = 4.25 sec. (884.13 ticks)
Tried aggregator 2 times.
MIP Presolve eliminated 933 rows and 827 columns.
MIP Presolve modified 2190 coefficients.
Aggregator did 45 substitutions.
Reduced MIP has 23850 rows, 20307 columns, and 68042 nonzeros.
Reduced MIP has 7960 binaries, 0 generals, 0 SOSs, and 0 indicators.
Presolve time = 0.22 sec. (55.84 ticks)
Probing time = 0.08 sec. (15.60 ticks)
Clique table members: 6152.
MIP emphasis: balance optimality and feasibility.
MIP search method: dynamic search.
Parallel mode: opportunistic, using up to 4 threads.
Root relaxation solution time = 1.00 sec. (573.55 ticks)

        Nodes                                         Cuts/
   Node  Left     Objective  IInf  Best Integer    Best Bound    ItCnt     Gap

      0     0     9263.0888   906                   9263.0888     4441         
      0     0     9260.2318    27                    Cuts: 47     4465         
      0     0     9238.9750    25                    Cuts: 29     4482         
      0     0     9238.9376    25                    Cuts: 15     4486         
      0     0     9238.7967    26                    Cuts: 10     4488         
      0     5     7987.6254    23                   9230.6117     4500         
Elapsed time = 17.00 sec. (5355.90 ticks, tree = 0.03 MB, solutions = 0)
     94    58     7666.4564     9                   9228.8528     4997         
    166   142     9105.1231     1                   9228.8528     5416         
    203   144    infeasible                         9228.8528     5448         
    282   199     9185.3325     2                   9219.8078     5685         
    322   201     7656.5835     3                   9219.8078     5691         
    377   268     9018.2043     5                   9219.8078     5973         
    400   283     9054.0672     1                   9219.8078     6043         
    420   282    infeasible                         9219.8078     6045         
    434   290    infeasible                         9219.8078     6075         
    483   297     7912.4979     2                   9219.8078     6099         
Elapsed time = 21.06 sec. (8556.85 ticks, tree = 2.78 MB, solutions = 0)
    518   308     9007.7745     2                   9219.8078     6135         
    558   310    infeasible                         9219.8078     6176         
    588   313     7656.5835     2                   9219.8078     6187         
    616   316     9054.0672     1                   9219.8078     6240         
    643   319     9054.0672     1                   9219.8078     6277         
    663   320     7656.5835     3                   9219.8078     6292         
    689   322     7656.5835     3                   9219.8078     6304         
    709   323     7912.4979     2                   9219.8078     6323         
    729   324    infeasible                         9219.8078     6335         
    746   328     7656.5835     2                   9219.8078     6339         
Elapsed time = 34.31 sec. (19082.92 ticks, tree = 3.00 MB, solutions = 0)
    760   330     7912.4979     2                   9219.8078     6354         
    777   330     9007.7745     2                   9219.8078     6365         
    795   333     9054.0672     1                   9219.8078     6376         
    812   338     7656.5835     3                   9219.8078     6390         
    828   338     7912.4979     2                   9219.8078     6401         
    842   338     7912.4979     2                   9219.8078     6403         
    857   340     7912.4979     2                   9219.8078     6417         
    872   340     7912.4979     2                   9219.8078     6419         
    886   342     7912.4979     2                   9219.8078     6439         
    901   342     7912.4979     2                   9219.8078     6441         
Elapsed time = 47.41 sec. (29448.18 ticks, tree = 3.08 MB, solutions = 0)
    914   344     9054.0672     1                   9219.8078     6459         
    928   344     9054.0672     1                   9219.8078     6461         
    943   346     7656.5835     2                   9219.8078     6463         
    958   346     7656.5835     3                   9219.8078     6476         
    970   347     9054.0672     1                   9219.8078     6491         
    982   349     7656.5835     2                   9219.8078     6492         
    993   349    infeasible                         9219.8078     6496         
   1006   350    infeasible                         9219.8078     6498         
   1020   351    infeasible                         9219.8078     6509         
   1028   352     7912.4979     2                   9219.8078     6518         
Elapsed time = 63.58 sec. (40218.56 ticks, tree = 3.12 MB, solutions = 0)
   1036   353     7656.5835     3                   9219.8078     6512         
   1051   354     7656.5835     2                   9219.8078     6521         
   1063   354     7656.5835     3                   9219.8078     6522         
   1068   353     7912.4979     2                   9219.8078     6535         
   1077   356     9054.0672     1                   9219.8078     6549         
   1088   356     7656.5835     3                   9219.8078     6544         
   1101   357     7656.5835     2                   9219.8078     6546         
   1111   357     7656.5835     3                   9219.8078     6557         
   1122   358     7656.5835     2                   9219.8078     6559         
   1133   359    infeasible                         9219.8078     6584         
Elapsed time = 77.11 sec. (50836.66 ticks, tree = 3.19 MB, solutions = 0)
   1143   359     9007.7745     2                   9219.8078     6579         
   1153   359     7912.4979     2                   9219.8078     6579         
   1168   361     7912.4979     2                   9219.8078     6598         
   1179   361    infeasible                         9219.8078     6607         
   1187   360     9007.7745     2                   9219.8078     6594         
   1199   362    infeasible                         9219.8078     6620         
   1209   363     7912.4979     2                   9219.8078     6621         
   1221   365     9054.0672     1                   9219.8078     6636         
   1230   364     9007.7745     2                   9219.8078     6626         
   1238   363     7912.4979     2                   9219.8078     6627         
Elapsed time = 97.61 sec. (62785.71 ticks, tree = 3.21 MB, solutions = 0)
   1252   366     7912.4979     2                   9219.8078     6653         
   1263   365    infeasible                         9219.8078     6656         
   1271   365     9007.7745     2                   9219.8078     6642         
   1281   367     7912.4979     2                   9219.8078     6666         
   1292   366     9054.0672     1                   9219.8078     6659         
   1299   368    infeasible                         9219.8078     6687         
   1306   369     9054.0672     1                   9219.8078     6685         
   1315   369     9007.7745     2                   9219.8078     6691         
   1324   369     7912.4979     2                   9219.8078     6690         
   1327   369     9054.0672     1                   9219.8078     6688         
Elapsed time = 113.38 sec. (74362.72 ticks, tree = 3.94 MB, solutions = 0)
   1328   372     7656.5835     3                   9219.8078     6694         

Clique cuts applied:  10
Implied bound cuts applied:  14
Flow cuts applied:  31
Mixed integer rounding cuts applied:  2
Gomory fractional cuts applied:  12

Root node processing (before b&c):
  Real time             =   16.69 sec. (5312.58 ticks)
Parallel b&c, 4 threads:
  Real time             =   96.75 sec. (70144.21 ticks)
  Sync time (average)   =    0.10 sec.
  Wait time (average)   =    0.02 sec.
                          ------------
Total (root+branch&cut) =  113.44 sec. (75456.79 ticks)


MIP - Deterministic time limit exceeded, no integer solution.
Current MIP best bound =  9.2198077571e+03 (gap is infinite)
Solution time =  113.44 sec.  Iterations = 6709  Nodes = 1329 (372)
Deterministic time = 75456.94 ticks  (665.18 ticks/sec)

CPLEX> CPLEX Error  1217: No solution exists.
No file written.
CPLEX> gap is infinite, so writing 0
NOTE: no warmstart specified for MIP iteration, default behavior is true
NOTE: resolving with all competitive generators using storage-only solution to warmstart
Solving...

Welcome to IBM(R) ILOG(R) CPLEX(R) Interactive Optimizer 12.8.0.0
  with Simplex, Mixed Integer & Barrier Optimizers
5725-A06 5725-A29 5724-Y48 5724-Y49 5724-Y54 5724-Y55 5655-Y21
Copyright IBM Corp. 1988, 2017.  All Rights Reserved.

Type 'help' for a list of available commands.
Type 'help' followed by a command name for more
information on commands.

CPLEX> Logfile 'cplex.log' closed.
Logfile 'C:\Users\llavi\Desktop\test919\logs\tmph76tep2t.cplex.log' open.
CPLEX> New value for parallel optimization mode: -1
CPLEX> New value for mixed integer optimality gap tolerance: 0.01
CPLEX> New value for integrality tolerance: 1e-09
CPLEX> New value for feasibility tolerance: 0.01
CPLEX> New value for deterministic time limit in ticks: 75000
CPLEX> Problem 'C:\Users\llavi\Desktop\test919\logs\tmphjjq3jsd.pyomo.lp' read.
Read time = 0.25 sec. (13.52 ticks)
CPLEX> MIP start file 'C:\Users\llavi\Desktop\test919\logs\tmpdal_kk7t.cplex.mst' read.
CPLEX> Problem name         : C:\Users\llavi\Desktop\test919\logs\tmphjjq3jsd.pyomo.lp
Objective sense      : Maximize
Variables            :   54741  [Nneg: 1,  Box: 22728,  Free: 4464,
                                 Binary: 27548]
Objective nonzeros   :    9700
Linear constraints   :  123829  [Less: 41554,  Greater: 59512,  Equal: 22763]
  Nonzeros           :  300593
  RHS nonzeros       :   67901

Variables            : Min LB: -5000.000        Max UB: 1000000.       
Objective nonzeros   : Min   : 0.4000000        Max   : 760.4917       
Linear constraints   :
  Nonzeros           : Min   : 0.001000000      Max   : 1000000.       
  RHS nonzeros       : Min   : 0.4000000        Max   : 1000000.       
CPLEX> CPXPARAM_Simplex_Tolerances_Feasibility          0.01
CPXPARAM_Parallel                                -1
CPXPARAM_DetTimeLimit                            75000
CPXPARAM_MIP_Tolerances_MIPGap                   0.01
CPXPARAM_MIP_Tolerances_Integrality              1.0000000000000001e-09
Warning:  No solution found from 1 MIP starts.
Retaining values of one MIP start for possible repair.
Tried aggregator 3 times.
MIP Presolve eliminated 89377 rows and 19989 columns.
MIP Presolve added 3393 rows and 0 columns.
MIP Presolve modified 23850 coefficients.
Aggregator did 13017 substitutions.
Reduced MIP has 24828 rows, 21179 columns, and 70875 nonzeros.
Reduced MIP has 8373 binaries, 0 generals, 0 SOSs, and 0 indicators.
Presolve time = 0.33 sec. (170.13 ticks)
Probing fixed 413 vars, tightened 2853 bounds.
Probing time = 4.28 sec. (884.13 ticks)
Tried aggregator 2 times.
MIP Presolve eliminated 933 rows and 827 columns.
MIP Presolve modified 2190 coefficients.
Aggregator did 45 substitutions.
Reduced MIP has 23850 rows, 20307 columns, and 68042 nonzeros.
Reduced MIP has 7960 binaries, 0 generals, 0 SOSs, and 0 indicators.
Presolve time = 0.16 sec. (55.84 ticks)
Probing time = 0.06 sec. (15.60 ticks)
Clique table members: 6152.
MIP emphasis: balance optimality and feasibility.
MIP search method: dynamic search.
Parallel mode: opportunistic, using up to 4 threads.
Root relaxation solution time = 0.88 sec. (561.74 ticks)

        Nodes                                         Cuts/
   Node  Left     Objective  IInf  Best Integer    Best Bound    ItCnt     Gap

      0     0     9263.0888   912                   9263.0888     4327         
      0     0     9263.1056    20                    Cuts: 25     4337         
      0     0     9260.1696    21                    Cuts: 17     4349         
      0     0     9251.1770    19                    Cuts: 15     4354         
      0     0     9249.9781    19                 Flowcuts: 4     4357         
Repair heuristic found nothing.
      0     4     9175.4743    17                   9231.3692     4367         
Elapsed time = 28.33 sec. (7963.81 ticks, tree = 0.02 MB, solutions = 0)
     99    79     9111.1429     4                   9230.0151     5173         
    147   117     9032.1637    11                   9230.0151     5340         
    185   117     7660.7189     2                   9230.0151     5368         
    206   141     8979.6182     1                   9230.0151     5466         
    230   146    infeasible                         9230.0151     5495         
    248   149     9054.1995     2                   9230.0151     5507         
    262   153     7660.7189     4                   9230.0151     5517         
    276   153     8979.6182     1                   9230.0151     5550         
    288   155     9032.1637     1                   9230.0151     5562         
    330   154    infeasible                         9230.0151     5585         
Elapsed time = 33.81 sec. (11134.34 ticks, tree = 1.95 MB, solutions = 0)
    361   158     7660.7189     2                   9230.0151     5604         
    393   159     8979.6182     1                   9230.0151     5639         
    421   162    infeasible                         9230.0151     5689         
    450   162    infeasible                         9230.0151     5715         
    471   163     9032.1637     1                   9230.0151     5720         
    495   163     9054.1995     2                   9230.0151     5744         
    514   163     7660.7189     2                   9230.0151     5752         
    532   167     9054.1995     2                   9230.0151     5781         
    546   166     7660.7189     2                   9230.0151     5766         
    567   171     9032.1637     1                   9230.0151     5801         
Elapsed time = 46.64 sec. (21142.64 ticks, tree = 1.70 MB, solutions = 0)
    579   173     7660.7189     2                   9230.0151     5804         
    589   174     8979.6182     1                   9230.0151     5811         
    605   174     9054.1995     2                   9230.0151     5829         
    622   173    infeasible                         9230.0151     5848         
    639   174    infeasible                         9230.0151     5844         
    654   177     9032.1637     3                   9230.0151     5869         
    665   177    infeasible                         9230.0151     5871         
    677   178     7660.7189     2                   9230.0151     5878         
    688   180     8979.6182     1                   9230.0151     5889         
    705   183     8979.6182     1                   9230.0151     5913         
Elapsed time = 62.89 sec. (31712.68 ticks, tree = 1.51 MB, solutions = 0)
    720   183     8979.6182     1                   9230.0151     5915         
    736   184     8979.6182     1                   9230.0151     5929         
    752   184     8979.6182     1                   9230.0151     5931         
    764   185     8979.6182     1                   9230.0151     5950         
    776   185     8979.6182     1                   9230.0151     5952         
    792   185     8979.6182     1                   9230.0151     5968         
    808   185     8979.6182     1                   9230.0151     5970         
    824   185     7660.7189     2                   9230.0151     5978         
    840   185     7660.7189     2                   9230.0151     5988         
    852   185     7660.7189     2                   9230.0151     5990         
Elapsed time = 79.52 sec. (43730.40 ticks, tree = 1.49 MB, solutions = 0)
    862   184    infeasible                         9230.0151     6007         
    873   186     9032.1637     1                   9230.0151     6013         
    883   185    infeasible                         9230.0151     6012         
    892   186     7660.7189     2                   9230.0151     6018         
    908   186     7660.7189     2                   9230.0151     6020         
    922   186     7660.7189     2                   9230.0151     6032         
    934   186     7660.7189     2                   9230.0151     6034         
    948   186     7660.7189     2                   9230.0151     6050         
    964   186     7660.7189     2                   9230.0151     6052         
    980   186     7660.7189     2                   9230.0151     6063         
Elapsed time = 95.66 sec. (56836.34 ticks, tree = 1.78 MB, solutions = 0)
    996   186     7660.7189     2                   9230.0151     6065         
   1010   186     7660.7189     2                   9230.0151     6079         
   1022   186     7660.7189     2                   9230.0151     6081         
   1035   186    infeasible                         9230.0151     6098         
   1044   187     9032.1637     1                   9230.0151     6091         
   1052   187     7660.7189     2                   9230.0151     6097         
   1067   186    infeasible                         9230.0151     6111         
   1074   187     8979.6182     1                   9230.0151     6115         
   1084   187     7660.7189     2                   9230.0151     6110         
   1097   186    infeasible                         9230.0151     6127         
Elapsed time = 111.83 sec. (69750.19 ticks, tree = 1.75 MB, solutions = 0)
   1103   186    infeasible                         9230.0151     6125         
   1110   187     8979.6182     1                   9230.0151     6130         
   1120   187     9054.1995     2                   9230.0151     6130         
   1129   186    infeasible                         9230.0151     6146         
   1136   187     8979.6182     1                   9230.0151     6146         

Clique cuts applied:  5
Implied bound cuts applied:  10
Flow cuts applied:  25
Mixed integer rounding cuts applied:  1
Gomory fractional cuts applied:  3

Root node processing (before b&c):
  Real time             =   28.09 sec. (7934.24 ticks)
Parallel b&c, 4 threads:
  Real time             =   92.83 sec. (68183.51 ticks)
  Sync time (average)   =    0.07 sec.
  Wait time (average)   =    0.02 sec.
                          ------------
Total (root+branch&cut) =  120.92 sec. (76117.74 ticks)


MIP - Deterministic time limit exceeded, no integer solution.
Current MIP best bound =  9.2300151102e+03 (gap is infinite)
Solution time =  120.92 sec.  Iterations = 6159  Nodes = 1139 (188)
Deterministic time = 76117.90 ticks  (629.48 ticks/sec)

CPLEX> CPLEX Error  1217: No solution exists.
No file written.
CPLEX> gap is infinite, so writing 0
Exporting results... 
